
  22    4
  10   10   10   10

   0   0   0   0   0   1 2 
   1  10  10  10  10   3 5 4 3 
   9  10  10  10  10   4 11 8 7 6 
   6  10  10  10  10   3 11 7 6 
   7  10  10  10  10   3 11 7 6 
   9  10  10  10  10   3 12 10 9 
   9  10  10  10  10   2 12 9 
   4  10  10  10  10   1 9 
   7  10  10  10  10   4 21 16 15 13 
   6  10  10  10  10   4 17 16 15 13 
   6  10  10  10  10   4 21 16 15 13 
   6  10  10  10  10   2 15 13 
   4  10  10  10  10   2 20 14 
   6  10  10  10  10   1 18 
   5  10  10  10  10   1 19 
   8  10  10  10  10   1 19 
   5  10  10  10  10   1 18 
   3  10  10  10  10   1 22
   9  10  10  10  10   1 22
   4  10  10  10  10   1 22
   9  10  10  10  10   1 22
   0   0   0   0   0   0 
